NAME (null)
ROWS
 N  OBJ
 G  positiveDeviation_1
 G  negativeDeviation_1
 G  positiveDeviation_2
 G  negativeDeviation_2
 G  positiveDeviation_3
 G  negativeDeviation_3
 G  positiveDeviation_4
 G  negativeDeviation_4
 G  positiveDeviation_5
 G  negativeDeviation_5
 E  initialState_1_1
 E  initialState_2_1
 E  initialState_3_1
 E  initialState_4_1
 E  initialState_5_1
 G  minOperation_1_1
 L  maxOperation_1_1
 G  minOperation_1_2
 L  maxOperation_1_2
 G  minOperation_1_3
 L  maxOperation_1_3
 G  minOperation_1_4
 L  maxOperation_1_4
 G  minOperation_1_5
 L  maxOperation_1_5
 G  minOperation_2_1
 L  maxOperation_2_1
 G  minOperation_2_2
 L  maxOperation_2_2
 G  minOperation_2_3
 L  maxOperation_2_3
 G  minOperation_2_4
 L  maxOperation_2_4
 G  minOperation_2_5
 L  maxOperation_2_5
 G  minOperation_3_1
 L  maxOperation_3_1
 G  minOperation_3_2
 L  maxOperation_3_2
 G  minOperation_3_3
 L  maxOperation_3_3
 G  minOperation_3_4
 L  maxOperation_3_4
 G  minOperation_3_5
 L  maxOperation_3_5
 G  minOperation_4_1
 L  maxOperation_4_1
 G  minOperation_4_2
 L  maxOperation_4_2
 G  minOperation_4_3
 L  maxOperation_4_3
 G  minOperation_4_4
 L  maxOperation_4_4
 G  minOperation_4_5
 L  maxOperation_4_5
 G  minOperation_5_1
 L  maxOperation_5_1
 G  minOperation_5_2
 L  maxOperation_5_2
 G  minOperation_5_3
 L  maxOperation_5_3
 G  minOperation_5_4
 L  maxOperation_5_4
 G  minOperation_5_5
 L  maxOperation_5_5
 E  stateExclusivity_1_1
 E  stateExclusivity_1_2
 E  stateExclusivity_1_3
 E  stateExclusivity_1_4
 E  stateExclusivity_1_5
 E  stateExclusivity_2_1
 E  stateExclusivity_2_2
 E  stateExclusivity_2_3
 E  stateExclusivity_2_4
 E  stateExclusivity_2_5
 E  stateExclusivity_3_1
 E  stateExclusivity_3_2
 E  stateExclusivity_3_3
 E  stateExclusivity_3_4
 E  stateExclusivity_3_5
 E  stateExclusivity_4_1
 E  stateExclusivity_4_2
 E  stateExclusivity_4_3
 E  stateExclusivity_4_4
 E  stateExclusivity_4_5
 E  stateExclusivity_5_1
 E  stateExclusivity_5_2
 E  stateExclusivity_5_3
 E  stateExclusivity_5_4
 E  stateExclusivity_5_5
 L  stateTransitionStarting_1_2
 L  stateTransitionProduction_1_2
 L  stateTransitionStandby_1_2
 L  stateTransitionIdle_1_2
 L  stateTransitionStarting_1_3
 L  stateTransitionProduction_1_3
 L  stateTransitionStandby_1_3
 L  stateTransitionIdle_1_3
 L  stateTransitionStarting_1_4
 L  stateTransitionProduction_1_4
 L  stateTransitionStandby_1_4
 L  stateTransitionIdle_1_4
 L  stateTransitionStarting_1_5
 L  stateTransitionProduction_1_5
 L  stateTransitionStandby_1_5
 L  stateTransitionIdle_1_5
 L  stateTransitionStarting_2_2
 L  stateTransitionProduction_2_2
 L  stateTransitionStandby_2_2
 L  stateTransitionIdle_2_2
 L  stateTransitionStarting_2_3
 L  stateTransitionProduction_2_3
 L  stateTransitionStandby_2_3
 L  stateTransitionIdle_2_3
 L  stateTransitionStarting_2_4
 L  stateTransitionProduction_2_4
 L  stateTransitionStandby_2_4
 L  stateTransitionIdle_2_4
 L  stateTransitionStarting_2_5
 L  stateTransitionProduction_2_5
 L  stateTransitionStandby_2_5
 L  stateTransitionIdle_2_5
 L  stateTransitionStarting_3_2
 L  stateTransitionProduction_3_2
 L  stateTransitionStandby_3_2
 L  stateTransitionIdle_3_2
 L  stateTransitionStarting_3_3
 L  stateTransitionProduction_3_3
 L  stateTransitionStandby_3_3
 L  stateTransitionIdle_3_3
 L  stateTransitionStarting_3_4
 L  stateTransitionProduction_3_4
 L  stateTransitionStandby_3_4
 L  stateTransitionIdle_3_4
 L  stateTransitionStarting_3_5
 L  stateTransitionProduction_3_5
 L  stateTransitionStandby_3_5
 L  stateTransitionIdle_3_5
 L  stateTransitionStarting_4_2
 L  stateTransitionProduction_4_2
 L  stateTransitionStandby_4_2
 L  stateTransitionIdle_4_2
 L  stateTransitionStarting_4_3
 L  stateTransitionProduction_4_3
 L  stateTransitionStandby_4_3
 L  stateTransitionIdle_4_3
 L  stateTransitionStarting_4_4
 L  stateTransitionProduction_4_4
 L  stateTransitionStandby_4_4
 L  stateTransitionIdle_4_4
 L  stateTransitionStarting_4_5
 L  stateTransitionProduction_4_5
 L  stateTransitionStandby_4_5
 L  stateTransitionIdle_4_5
 L  stateTransitionStarting_5_2
 L  stateTransitionProduction_5_2
 L  stateTransitionStandby_5_2
 L  stateTransitionIdle_5_2
 L  stateTransitionStarting_5_3
 L  stateTransitionProduction_5_3
 L  stateTransitionStandby_5_3
 L  stateTransitionIdle_5_3
 L  stateTransitionStarting_5_4
 L  stateTransitionProduction_5_4
 L  stateTransitionStandby_5_4
 L  stateTransitionIdle_5_4
 L  stateTransitionStarting_5_5
 L  stateTransitionProduction_5_5
 L  stateTransitionStandby_5_5
 L  stateTransitionIdle_5_5
COLUMNS
    x_1_1     OBJ       13.75
    x_1_1     positiveDeviation_1  0.15
    x_1_1     negativeDeviation_1  -0.15
    x_1_1     minOperation_1_1  1
    x_1_1     maxOperation_1_1  1
    MARKER    'MARKER'                 'INTORG'
    y_1_1_IDLE  initialState_1_1  1
    y_1_1_IDLE  stateExclusivity_1_1  1
    y_1_1_IDLE  stateTransitionStarting_1_2  -1
    y_1_1_IDLE  stateTransitionIdle_1_2  -1
    y_1_1_STARTING  OBJ       1.25
    y_1_1_STARTING  stateExclusivity_1_1  1
    y_1_1_STARTING  stateTransitionStarting_1_2  -1
    y_1_1_STARTING  stateTransitionProduction_1_2  -1
    y_1_1_PRODUCTION  minOperation_1_1  -0.1
    y_1_1_PRODUCTION  maxOperation_1_1  -1
    y_1_1_PRODUCTION  stateExclusivity_1_1  1
    y_1_1_PRODUCTION  stateTransitionProduction_1_2  -1
    y_1_1_PRODUCTION  stateTransitionStandby_1_2  -1
    y_1_1_PRODUCTION  stateTransitionIdle_1_2  -1
    y_1_1_STANDBY  OBJ       0.05
    y_1_1_STANDBY  stateExclusivity_1_1  1
    y_1_1_STANDBY  stateTransitionProduction_1_2  -1
    y_1_1_STANDBY  stateTransitionStandby_1_2  -1
    y_1_1_STANDBY  stateTransitionIdle_1_2  -1
    MARKER    'MARKER'                 'INTEND'
    x_1_2     OBJ       21.75
    x_1_2     positiveDeviation_2  0.15
    x_1_2     negativeDeviation_2  -0.15
    x_1_2     minOperation_1_2  1
    x_1_2     maxOperation_1_2  1
    MARKER    'MARKER'                 'INTORG'
    y_1_2_IDLE  stateExclusivity_1_2  1
    y_1_2_IDLE  stateTransitionIdle_1_2  1
    y_1_2_IDLE  stateTransitionStarting_1_3  -1
    y_1_2_IDLE  stateTransitionIdle_1_3  -1
    y_1_2_STARTING  OBJ       1.25
    y_1_2_STARTING  stateExclusivity_1_2  1
    y_1_2_STARTING  stateTransitionStarting_1_2  1
    y_1_2_STARTING  stateTransitionStarting_1_3  -1
    y_1_2_STARTING  stateTransitionProduction_1_3  -1
    y_1_2_PRODUCTION  minOperation_1_2  -0.1
    y_1_2_PRODUCTION  maxOperation_1_2  -1
    y_1_2_PRODUCTION  stateExclusivity_1_2  1
    y_1_2_PRODUCTION  stateTransitionProduction_1_2  1
    y_1_2_PRODUCTION  stateTransitionProduction_1_3  -1
    y_1_2_PRODUCTION  stateTransitionStandby_1_3  -1
    y_1_2_PRODUCTION  stateTransitionIdle_1_3  -1
    y_1_2_STANDBY  OBJ       0.05
    y_1_2_STANDBY  stateExclusivity_1_2  1
    y_1_2_STANDBY  stateTransitionStandby_1_2  1
    y_1_2_STANDBY  stateTransitionProduction_1_3  -1
    y_1_2_STANDBY  stateTransitionStandby_1_3  -1
    y_1_2_STANDBY  stateTransitionIdle_1_3  -1
    MARKER    'MARKER'                 'INTEND'
    x_1_3     OBJ       13.5
    x_1_3     positiveDeviation_3  0.15
    x_1_3     negativeDeviation_3  -0.15
    x_1_3     minOperation_1_3  1
    x_1_3     maxOperation_1_3  1
    MARKER    'MARKER'                 'INTORG'
    y_1_3_IDLE  stateExclusivity_1_3  1
    y_1_3_IDLE  stateTransitionIdle_1_3  1
    y_1_3_IDLE  stateTransitionStarting_1_4  -1
    y_1_3_IDLE  stateTransitionIdle_1_4  -1
    y_1_3_STARTING  OBJ       1.25
    y_1_3_STARTING  stateExclusivity_1_3  1
    y_1_3_STARTING  stateTransitionStarting_1_3  1
    y_1_3_STARTING  stateTransitionStarting_1_4  -1
    y_1_3_STARTING  stateTransitionProduction_1_4  -1
    y_1_3_PRODUCTION  minOperation_1_3  -0.1
    y_1_3_PRODUCTION  maxOperation_1_3  -1
    y_1_3_PRODUCTION  stateExclusivity_1_3  1
    y_1_3_PRODUCTION  stateTransitionProduction_1_3  1
    y_1_3_PRODUCTION  stateTransitionProduction_1_4  -1
    y_1_3_PRODUCTION  stateTransitionStandby_1_4  -1
    y_1_3_PRODUCTION  stateTransitionIdle_1_4  -1
    y_1_3_STANDBY  OBJ       0.05
    y_1_3_STANDBY  stateExclusivity_1_3  1
    y_1_3_STANDBY  stateTransitionStandby_1_3  1
    y_1_3_STANDBY  stateTransitionProduction_1_4  -1
    y_1_3_STANDBY  stateTransitionStandby_1_4  -1
    y_1_3_STANDBY  stateTransitionIdle_1_4  -1
    MARKER    'MARKER'                 'INTEND'
    x_1_4     OBJ       14.5
    x_1_4     positiveDeviation_4  0.15
    x_1_4     negativeDeviation_4  -0.15
    x_1_4     minOperation_1_4  1
    x_1_4     maxOperation_1_4  1
    MARKER    'MARKER'                 'INTORG'
    y_1_4_IDLE  stateExclusivity_1_4  1
    y_1_4_IDLE  stateTransitionIdle_1_4  1
    y_1_4_IDLE  stateTransitionStarting_1_5  -1
    y_1_4_IDLE  stateTransitionIdle_1_5  -1
    y_1_4_STARTING  OBJ       1.25
    y_1_4_STARTING  stateExclusivity_1_4  1
    y_1_4_STARTING  stateTransitionStarting_1_4  1
    y_1_4_STARTING  stateTransitionStarting_1_5  -1
    y_1_4_STARTING  stateTransitionProduction_1_5  -1
    y_1_4_PRODUCTION  minOperation_1_4  -0.1
    y_1_4_PRODUCTION  maxOperation_1_4  -1
    y_1_4_PRODUCTION  stateExclusivity_1_4  1
    y_1_4_PRODUCTION  stateTransitionProduction_1_4  1
    y_1_4_PRODUCTION  stateTransitionProduction_1_5  -1
    y_1_4_PRODUCTION  stateTransitionStandby_1_5  -1
    y_1_4_PRODUCTION  stateTransitionIdle_1_5  -1
    y_1_4_STANDBY  OBJ       0.05
    y_1_4_STANDBY  stateExclusivity_1_4  1
    y_1_4_STANDBY  stateTransitionStandby_1_4  1
    y_1_4_STANDBY  stateTransitionProduction_1_5  -1
    y_1_4_STANDBY  stateTransitionStandby_1_5  -1
    y_1_4_STANDBY  stateTransitionIdle_1_5  -1
    MARKER    'MARKER'                 'INTEND'
    x_1_5     OBJ       19.75
    x_1_5     positiveDeviation_5  0.15
    x_1_5     negativeDeviation_5  -0.15
    x_1_5     minOperation_1_5  1
    x_1_5     maxOperation_1_5  1
    MARKER    'MARKER'                 'INTORG'
    y_1_5_IDLE  stateExclusivity_1_5  1
    y_1_5_IDLE  stateTransitionIdle_1_5  1
    y_1_5_STARTING  OBJ       1.25
    y_1_5_STARTING  stateExclusivity_1_5  1
    y_1_5_STARTING  stateTransitionStarting_1_5  1
    y_1_5_PRODUCTION  minOperation_1_5  -0.1
    y_1_5_PRODUCTION  maxOperation_1_5  -1
    y_1_5_PRODUCTION  stateExclusivity_1_5  1
    y_1_5_PRODUCTION  stateTransitionProduction_1_5  1
    y_1_5_STANDBY  OBJ       0.05
    y_1_5_STANDBY  stateExclusivity_1_5  1
    y_1_5_STANDBY  stateTransitionStandby_1_5  1
    MARKER    'MARKER'                 'INTEND'
    x_2_1     OBJ       13.75
    x_2_1     positiveDeviation_1  0.15
    x_2_1     negativeDeviation_1  -0.15
    x_2_1     minOperation_2_1  1
    x_2_1     maxOperation_2_1  1
    MARKER    'MARKER'                 'INTORG'
    y_2_1_IDLE  initialState_2_1  1
    y_2_1_IDLE  stateExclusivity_2_1  1
    y_2_1_IDLE  stateTransitionStarting_2_2  -1
    y_2_1_IDLE  stateTransitionIdle_2_2  -1
    y_2_1_STARTING  OBJ       1.25
    y_2_1_STARTING  stateExclusivity_2_1  1
    y_2_1_STARTING  stateTransitionStarting_2_2  -1
    y_2_1_STARTING  stateTransitionProduction_2_2  -1
    y_2_1_PRODUCTION  minOperation_2_1  -0.1
    y_2_1_PRODUCTION  maxOperation_2_1  -1
    y_2_1_PRODUCTION  stateExclusivity_2_1  1
    y_2_1_PRODUCTION  stateTransitionProduction_2_2  -1
    y_2_1_PRODUCTION  stateTransitionStandby_2_2  -1
    y_2_1_PRODUCTION  stateTransitionIdle_2_2  -1
    y_2_1_STANDBY  OBJ       0.05
    y_2_1_STANDBY  stateExclusivity_2_1  1
    y_2_1_STANDBY  stateTransitionProduction_2_2  -1
    y_2_1_STANDBY  stateTransitionStandby_2_2  -1
    y_2_1_STANDBY  stateTransitionIdle_2_2  -1
    MARKER    'MARKER'                 'INTEND'
    x_2_2     OBJ       21.75
    x_2_2     positiveDeviation_2  0.15
    x_2_2     negativeDeviation_2  -0.15
    x_2_2     minOperation_2_2  1
    x_2_2     maxOperation_2_2  1
    MARKER    'MARKER'                 'INTORG'
    y_2_2_IDLE  stateExclusivity_2_2  1
    y_2_2_IDLE  stateTransitionIdle_2_2  1
    y_2_2_IDLE  stateTransitionStarting_2_3  -1
    y_2_2_IDLE  stateTransitionIdle_2_3  -1
    y_2_2_STARTING  OBJ       1.25
    y_2_2_STARTING  stateExclusivity_2_2  1
    y_2_2_STARTING  stateTransitionStarting_2_2  1
    y_2_2_STARTING  stateTransitionStarting_2_3  -1
    y_2_2_STARTING  stateTransitionProduction_2_3  -1
    y_2_2_PRODUCTION  minOperation_2_2  -0.1
    y_2_2_PRODUCTION  maxOperation_2_2  -1
    y_2_2_PRODUCTION  stateExclusivity_2_2  1
    y_2_2_PRODUCTION  stateTransitionProduction_2_2  1
    y_2_2_PRODUCTION  stateTransitionProduction_2_3  -1
    y_2_2_PRODUCTION  stateTransitionStandby_2_3  -1
    y_2_2_PRODUCTION  stateTransitionIdle_2_3  -1
    y_2_2_STANDBY  OBJ       0.05
    y_2_2_STANDBY  stateExclusivity_2_2  1
    y_2_2_STANDBY  stateTransitionStandby_2_2  1
    y_2_2_STANDBY  stateTransitionProduction_2_3  -1
    y_2_2_STANDBY  stateTransitionStandby_2_3  -1
    y_2_2_STANDBY  stateTransitionIdle_2_3  -1
    MARKER    'MARKER'                 'INTEND'
    x_2_3     OBJ       13.5
    x_2_3     positiveDeviation_3  0.15
    x_2_3     negativeDeviation_3  -0.15
    x_2_3     minOperation_2_3  1
    x_2_3     maxOperation_2_3  1
    MARKER    'MARKER'                 'INTORG'
    y_2_3_IDLE  stateExclusivity_2_3  1
    y_2_3_IDLE  stateTransitionIdle_2_3  1
    y_2_3_IDLE  stateTransitionStarting_2_4  -1
    y_2_3_IDLE  stateTransitionIdle_2_4  -1
    y_2_3_STARTING  OBJ       1.25
    y_2_3_STARTING  stateExclusivity_2_3  1
    y_2_3_STARTING  stateTransitionStarting_2_3  1
    y_2_3_STARTING  stateTransitionStarting_2_4  -1
    y_2_3_STARTING  stateTransitionProduction_2_4  -1
    y_2_3_PRODUCTION  minOperation_2_3  -0.1
    y_2_3_PRODUCTION  maxOperation_2_3  -1
    y_2_3_PRODUCTION  stateExclusivity_2_3  1
    y_2_3_PRODUCTION  stateTransitionProduction_2_3  1
    y_2_3_PRODUCTION  stateTransitionProduction_2_4  -1
    y_2_3_PRODUCTION  stateTransitionStandby_2_4  -1
    y_2_3_PRODUCTION  stateTransitionIdle_2_4  -1
    y_2_3_STANDBY  OBJ       0.05
    y_2_3_STANDBY  stateExclusivity_2_3  1
    y_2_3_STANDBY  stateTransitionStandby_2_3  1
    y_2_3_STANDBY  stateTransitionProduction_2_4  -1
    y_2_3_STANDBY  stateTransitionStandby_2_4  -1
    y_2_3_STANDBY  stateTransitionIdle_2_4  -1
    MARKER    'MARKER'                 'INTEND'
    x_2_4     OBJ       14.5
    x_2_4     positiveDeviation_4  0.15
    x_2_4     negativeDeviation_4  -0.15
    x_2_4     minOperation_2_4  1
    x_2_4     maxOperation_2_4  1
    MARKER    'MARKER'                 'INTORG'
    y_2_4_IDLE  stateExclusivity_2_4  1
    y_2_4_IDLE  stateTransitionIdle_2_4  1
    y_2_4_IDLE  stateTransitionStarting_2_5  -1
    y_2_4_IDLE  stateTransitionIdle_2_5  -1
    y_2_4_STARTING  OBJ       1.25
    y_2_4_STARTING  stateExclusivity_2_4  1
    y_2_4_STARTING  stateTransitionStarting_2_4  1
    y_2_4_STARTING  stateTransitionStarting_2_5  -1
    y_2_4_STARTING  stateTransitionProduction_2_5  -1
    y_2_4_PRODUCTION  minOperation_2_4  -0.1
    y_2_4_PRODUCTION  maxOperation_2_4  -1
    y_2_4_PRODUCTION  stateExclusivity_2_4  1
    y_2_4_PRODUCTION  stateTransitionProduction_2_4  1
    y_2_4_PRODUCTION  stateTransitionProduction_2_5  -1
    y_2_4_PRODUCTION  stateTransitionStandby_2_5  -1
    y_2_4_PRODUCTION  stateTransitionIdle_2_5  -1
    y_2_4_STANDBY  OBJ       0.05
    y_2_4_STANDBY  stateExclusivity_2_4  1
    y_2_4_STANDBY  stateTransitionStandby_2_4  1
    y_2_4_STANDBY  stateTransitionProduction_2_5  -1
    y_2_4_STANDBY  stateTransitionStandby_2_5  -1
    y_2_4_STANDBY  stateTransitionIdle_2_5  -1
    MARKER    'MARKER'                 'INTEND'
    x_2_5     OBJ       19.75
    x_2_5     positiveDeviation_5  0.15
    x_2_5     negativeDeviation_5  -0.15
    x_2_5     minOperation_2_5  1
    x_2_5     maxOperation_2_5  1
    MARKER    'MARKER'                 'INTORG'
    y_2_5_IDLE  stateExclusivity_2_5  1
    y_2_5_IDLE  stateTransitionIdle_2_5  1
    y_2_5_STARTING  OBJ       1.25
    y_2_5_STARTING  stateExclusivity_2_5  1
    y_2_5_STARTING  stateTransitionStarting_2_5  1
    y_2_5_PRODUCTION  minOperation_2_5  -0.1
    y_2_5_PRODUCTION  maxOperation_2_5  -1
    y_2_5_PRODUCTION  stateExclusivity_2_5  1
    y_2_5_PRODUCTION  stateTransitionProduction_2_5  1
    y_2_5_STANDBY  OBJ       0.05
    y_2_5_STANDBY  stateExclusivity_2_5  1
    y_2_5_STANDBY  stateTransitionStandby_2_5  1
    MARKER    'MARKER'                 'INTEND'
    x_3_1     OBJ       13.75
    x_3_1     positiveDeviation_1  0.15
    x_3_1     negativeDeviation_1  -0.15
    x_3_1     minOperation_3_1  1
    x_3_1     maxOperation_3_1  1
    MARKER    'MARKER'                 'INTORG'
    y_3_1_IDLE  initialState_3_1  1
    y_3_1_IDLE  stateExclusivity_3_1  1
    y_3_1_IDLE  stateTransitionStarting_3_2  -1
    y_3_1_IDLE  stateTransitionIdle_3_2  -1
    y_3_1_STARTING  OBJ       1.25
    y_3_1_STARTING  stateExclusivity_3_1  1
    y_3_1_STARTING  stateTransitionStarting_3_2  -1
    y_3_1_STARTING  stateTransitionProduction_3_2  -1
    y_3_1_PRODUCTION  minOperation_3_1  -0.1
    y_3_1_PRODUCTION  maxOperation_3_1  -1
    y_3_1_PRODUCTION  stateExclusivity_3_1  1
    y_3_1_PRODUCTION  stateTransitionProduction_3_2  -1
    y_3_1_PRODUCTION  stateTransitionStandby_3_2  -1
    y_3_1_PRODUCTION  stateTransitionIdle_3_2  -1
    y_3_1_STANDBY  OBJ       0.05
    y_3_1_STANDBY  stateExclusivity_3_1  1
    y_3_1_STANDBY  stateTransitionProduction_3_2  -1
    y_3_1_STANDBY  stateTransitionStandby_3_2  -1
    y_3_1_STANDBY  stateTransitionIdle_3_2  -1
    MARKER    'MARKER'                 'INTEND'
    x_3_2     OBJ       21.75
    x_3_2     positiveDeviation_2  0.15
    x_3_2     negativeDeviation_2  -0.15
    x_3_2     minOperation_3_2  1
    x_3_2     maxOperation_3_2  1
    MARKER    'MARKER'                 'INTORG'
    y_3_2_IDLE  stateExclusivity_3_2  1
    y_3_2_IDLE  stateTransitionIdle_3_2  1
    y_3_2_IDLE  stateTransitionStarting_3_3  -1
    y_3_2_IDLE  stateTransitionIdle_3_3  -1
    y_3_2_STARTING  OBJ       1.25
    y_3_2_STARTING  stateExclusivity_3_2  1
    y_3_2_STARTING  stateTransitionStarting_3_2  1
    y_3_2_STARTING  stateTransitionStarting_3_3  -1
    y_3_2_STARTING  stateTransitionProduction_3_3  -1
    y_3_2_PRODUCTION  minOperation_3_2  -0.1
    y_3_2_PRODUCTION  maxOperation_3_2  -1
    y_3_2_PRODUCTION  stateExclusivity_3_2  1
    y_3_2_PRODUCTION  stateTransitionProduction_3_2  1
    y_3_2_PRODUCTION  stateTransitionProduction_3_3  -1
    y_3_2_PRODUCTION  stateTransitionStandby_3_3  -1
    y_3_2_PRODUCTION  stateTransitionIdle_3_3  -1
    y_3_2_STANDBY  OBJ       0.05
    y_3_2_STANDBY  stateExclusivity_3_2  1
    y_3_2_STANDBY  stateTransitionStandby_3_2  1
    y_3_2_STANDBY  stateTransitionProduction_3_3  -1
    y_3_2_STANDBY  stateTransitionStandby_3_3  -1
    y_3_2_STANDBY  stateTransitionIdle_3_3  -1
    MARKER    'MARKER'                 'INTEND'
    x_3_3     OBJ       13.5
    x_3_3     positiveDeviation_3  0.15
    x_3_3     negativeDeviation_3  -0.15
    x_3_3     minOperation_3_3  1
    x_3_3     maxOperation_3_3  1
    MARKER    'MARKER'                 'INTORG'
    y_3_3_IDLE  stateExclusivity_3_3  1
    y_3_3_IDLE  stateTransitionIdle_3_3  1
    y_3_3_IDLE  stateTransitionStarting_3_4  -1
    y_3_3_IDLE  stateTransitionIdle_3_4  -1
    y_3_3_STARTING  OBJ       1.25
    y_3_3_STARTING  stateExclusivity_3_3  1
    y_3_3_STARTING  stateTransitionStarting_3_3  1
    y_3_3_STARTING  stateTransitionStarting_3_4  -1
    y_3_3_STARTING  stateTransitionProduction_3_4  -1
    y_3_3_PRODUCTION  minOperation_3_3  -0.1
    y_3_3_PRODUCTION  maxOperation_3_3  -1
    y_3_3_PRODUCTION  stateExclusivity_3_3  1
    y_3_3_PRODUCTION  stateTransitionProduction_3_3  1
    y_3_3_PRODUCTION  stateTransitionProduction_3_4  -1
    y_3_3_PRODUCTION  stateTransitionStandby_3_4  -1
    y_3_3_PRODUCTION  stateTransitionIdle_3_4  -1
    y_3_3_STANDBY  OBJ       0.05
    y_3_3_STANDBY  stateExclusivity_3_3  1
    y_3_3_STANDBY  stateTransitionStandby_3_3  1
    y_3_3_STANDBY  stateTransitionProduction_3_4  -1
    y_3_3_STANDBY  stateTransitionStandby_3_4  -1
    y_3_3_STANDBY  stateTransitionIdle_3_4  -1
    MARKER    'MARKER'                 'INTEND'
    x_3_4     OBJ       14.5
    x_3_4     positiveDeviation_4  0.15
    x_3_4     negativeDeviation_4  -0.15
    x_3_4     minOperation_3_4  1
    x_3_4     maxOperation_3_4  1
    MARKER    'MARKER'                 'INTORG'
    y_3_4_IDLE  stateExclusivity_3_4  1
    y_3_4_IDLE  stateTransitionIdle_3_4  1
    y_3_4_IDLE  stateTransitionStarting_3_5  -1
    y_3_4_IDLE  stateTransitionIdle_3_5  -1
    y_3_4_STARTING  OBJ       1.25
    y_3_4_STARTING  stateExclusivity_3_4  1
    y_3_4_STARTING  stateTransitionStarting_3_4  1
    y_3_4_STARTING  stateTransitionStarting_3_5  -1
    y_3_4_STARTING  stateTransitionProduction_3_5  -1
    y_3_4_PRODUCTION  minOperation_3_4  -0.1
    y_3_4_PRODUCTION  maxOperation_3_4  -1
    y_3_4_PRODUCTION  stateExclusivity_3_4  1
    y_3_4_PRODUCTION  stateTransitionProduction_3_4  1
    y_3_4_PRODUCTION  stateTransitionProduction_3_5  -1
    y_3_4_PRODUCTION  stateTransitionStandby_3_5  -1
    y_3_4_PRODUCTION  stateTransitionIdle_3_5  -1
    y_3_4_STANDBY  OBJ       0.05
    y_3_4_STANDBY  stateExclusivity_3_4  1
    y_3_4_STANDBY  stateTransitionStandby_3_4  1
    y_3_4_STANDBY  stateTransitionProduction_3_5  -1
    y_3_4_STANDBY  stateTransitionStandby_3_5  -1
    y_3_4_STANDBY  stateTransitionIdle_3_5  -1
    MARKER    'MARKER'                 'INTEND'
    x_3_5     OBJ       19.75
    x_3_5     positiveDeviation_5  0.15
    x_3_5     negativeDeviation_5  -0.15
    x_3_5     minOperation_3_5  1
    x_3_5     maxOperation_3_5  1
    MARKER    'MARKER'                 'INTORG'
    y_3_5_IDLE  stateExclusivity_3_5  1
    y_3_5_IDLE  stateTransitionIdle_3_5  1
    y_3_5_STARTING  OBJ       1.25
    y_3_5_STARTING  stateExclusivity_3_5  1
    y_3_5_STARTING  stateTransitionStarting_3_5  1
    y_3_5_PRODUCTION  minOperation_3_5  -0.1
    y_3_5_PRODUCTION  maxOperation_3_5  -1
    y_3_5_PRODUCTION  stateExclusivity_3_5  1
    y_3_5_PRODUCTION  stateTransitionProduction_3_5  1
    y_3_5_STANDBY  OBJ       0.05
    y_3_5_STANDBY  stateExclusivity_3_5  1
    y_3_5_STANDBY  stateTransitionStandby_3_5  1
    MARKER    'MARKER'                 'INTEND'
    x_4_1     OBJ       13.75
    x_4_1     positiveDeviation_1  0.15
    x_4_1     negativeDeviation_1  -0.15
    x_4_1     minOperation_4_1  1
    x_4_1     maxOperation_4_1  1
    MARKER    'MARKER'                 'INTORG'
    y_4_1_IDLE  initialState_4_1  1
    y_4_1_IDLE  stateExclusivity_4_1  1
    y_4_1_IDLE  stateTransitionStarting_4_2  -1
    y_4_1_IDLE  stateTransitionIdle_4_2  -1
    y_4_1_STARTING  OBJ       1.25
    y_4_1_STARTING  stateExclusivity_4_1  1
    y_4_1_STARTING  stateTransitionStarting_4_2  -1
    y_4_1_STARTING  stateTransitionProduction_4_2  -1
    y_4_1_PRODUCTION  minOperation_4_1  -0.1
    y_4_1_PRODUCTION  maxOperation_4_1  -1
    y_4_1_PRODUCTION  stateExclusivity_4_1  1
    y_4_1_PRODUCTION  stateTransitionProduction_4_2  -1
    y_4_1_PRODUCTION  stateTransitionStandby_4_2  -1
    y_4_1_PRODUCTION  stateTransitionIdle_4_2  -1
    y_4_1_STANDBY  OBJ       0.05
    y_4_1_STANDBY  stateExclusivity_4_1  1
    y_4_1_STANDBY  stateTransitionProduction_4_2  -1
    y_4_1_STANDBY  stateTransitionStandby_4_2  -1
    y_4_1_STANDBY  stateTransitionIdle_4_2  -1
    MARKER    'MARKER'                 'INTEND'
    x_4_2     OBJ       21.75
    x_4_2     positiveDeviation_2  0.15
    x_4_2     negativeDeviation_2  -0.15
    x_4_2     minOperation_4_2  1
    x_4_2     maxOperation_4_2  1
    MARKER    'MARKER'                 'INTORG'
    y_4_2_IDLE  stateExclusivity_4_2  1
    y_4_2_IDLE  stateTransitionIdle_4_2  1
    y_4_2_IDLE  stateTransitionStarting_4_3  -1
    y_4_2_IDLE  stateTransitionIdle_4_3  -1
    y_4_2_STARTING  OBJ       1.25
    y_4_2_STARTING  stateExclusivity_4_2  1
    y_4_2_STARTING  stateTransitionStarting_4_2  1
    y_4_2_STARTING  stateTransitionStarting_4_3  -1
    y_4_2_STARTING  stateTransitionProduction_4_3  -1
    y_4_2_PRODUCTION  minOperation_4_2  -0.1
    y_4_2_PRODUCTION  maxOperation_4_2  -1
    y_4_2_PRODUCTION  stateExclusivity_4_2  1
    y_4_2_PRODUCTION  stateTransitionProduction_4_2  1
    y_4_2_PRODUCTION  stateTransitionProduction_4_3  -1
    y_4_2_PRODUCTION  stateTransitionStandby_4_3  -1
    y_4_2_PRODUCTION  stateTransitionIdle_4_3  -1
    y_4_2_STANDBY  OBJ       0.05
    y_4_2_STANDBY  stateExclusivity_4_2  1
    y_4_2_STANDBY  stateTransitionStandby_4_2  1
    y_4_2_STANDBY  stateTransitionProduction_4_3  -1
    y_4_2_STANDBY  stateTransitionStandby_4_3  -1
    y_4_2_STANDBY  stateTransitionIdle_4_3  -1
    MARKER    'MARKER'                 'INTEND'
    x_4_3     OBJ       13.5
    x_4_3     positiveDeviation_3  0.15
    x_4_3     negativeDeviation_3  -0.15
    x_4_3     minOperation_4_3  1
    x_4_3     maxOperation_4_3  1
    MARKER    'MARKER'                 'INTORG'
    y_4_3_IDLE  stateExclusivity_4_3  1
    y_4_3_IDLE  stateTransitionIdle_4_3  1
    y_4_3_IDLE  stateTransitionStarting_4_4  -1
    y_4_3_IDLE  stateTransitionIdle_4_4  -1
    y_4_3_STARTING  OBJ       1.25
    y_4_3_STARTING  stateExclusivity_4_3  1
    y_4_3_STARTING  stateTransitionStarting_4_3  1
    y_4_3_STARTING  stateTransitionStarting_4_4  -1
    y_4_3_STARTING  stateTransitionProduction_4_4  -1
    y_4_3_PRODUCTION  minOperation_4_3  -0.1
    y_4_3_PRODUCTION  maxOperation_4_3  -1
    y_4_3_PRODUCTION  stateExclusivity_4_3  1
    y_4_3_PRODUCTION  stateTransitionProduction_4_3  1
    y_4_3_PRODUCTION  stateTransitionProduction_4_4  -1
    y_4_3_PRODUCTION  stateTransitionStandby_4_4  -1
    y_4_3_PRODUCTION  stateTransitionIdle_4_4  -1
    y_4_3_STANDBY  OBJ       0.05
    y_4_3_STANDBY  stateExclusivity_4_3  1
    y_4_3_STANDBY  stateTransitionStandby_4_3  1
    y_4_3_STANDBY  stateTransitionProduction_4_4  -1
    y_4_3_STANDBY  stateTransitionStandby_4_4  -1
    y_4_3_STANDBY  stateTransitionIdle_4_4  -1
    MARKER    'MARKER'                 'INTEND'
    x_4_4     OBJ       14.5
    x_4_4     positiveDeviation_4  0.15
    x_4_4     negativeDeviation_4  -0.15
    x_4_4     minOperation_4_4  1
    x_4_4     maxOperation_4_4  1
    MARKER    'MARKER'                 'INTORG'
    y_4_4_IDLE  stateExclusivity_4_4  1
    y_4_4_IDLE  stateTransitionIdle_4_4  1
    y_4_4_IDLE  stateTransitionStarting_4_5  -1
    y_4_4_IDLE  stateTransitionIdle_4_5  -1
    y_4_4_STARTING  OBJ       1.25
    y_4_4_STARTING  stateExclusivity_4_4  1
    y_4_4_STARTING  stateTransitionStarting_4_4  1
    y_4_4_STARTING  stateTransitionStarting_4_5  -1
    y_4_4_STARTING  stateTransitionProduction_4_5  -1
    y_4_4_PRODUCTION  minOperation_4_4  -0.1
    y_4_4_PRODUCTION  maxOperation_4_4  -1
    y_4_4_PRODUCTION  stateExclusivity_4_4  1
    y_4_4_PRODUCTION  stateTransitionProduction_4_4  1
    y_4_4_PRODUCTION  stateTransitionProduction_4_5  -1
    y_4_4_PRODUCTION  stateTransitionStandby_4_5  -1
    y_4_4_PRODUCTION  stateTransitionIdle_4_5  -1
    y_4_4_STANDBY  OBJ       0.05
    y_4_4_STANDBY  stateExclusivity_4_4  1
    y_4_4_STANDBY  stateTransitionStandby_4_4  1
    y_4_4_STANDBY  stateTransitionProduction_4_5  -1
    y_4_4_STANDBY  stateTransitionStandby_4_5  -1
    y_4_4_STANDBY  stateTransitionIdle_4_5  -1
    MARKER    'MARKER'                 'INTEND'
    x_4_5     OBJ       19.75
    x_4_5     positiveDeviation_5  0.15
    x_4_5     negativeDeviation_5  -0.15
    x_4_5     minOperation_4_5  1
    x_4_5     maxOperation_4_5  1
    MARKER    'MARKER'                 'INTORG'
    y_4_5_IDLE  stateExclusivity_4_5  1
    y_4_5_IDLE  stateTransitionIdle_4_5  1
    y_4_5_STARTING  OBJ       1.25
    y_4_5_STARTING  stateExclusivity_4_5  1
    y_4_5_STARTING  stateTransitionStarting_4_5  1
    y_4_5_PRODUCTION  minOperation_4_5  -0.1
    y_4_5_PRODUCTION  maxOperation_4_5  -1
    y_4_5_PRODUCTION  stateExclusivity_4_5  1
    y_4_5_PRODUCTION  stateTransitionProduction_4_5  1
    y_4_5_STANDBY  OBJ       0.05
    y_4_5_STANDBY  stateExclusivity_4_5  1
    y_4_5_STANDBY  stateTransitionStandby_4_5  1
    MARKER    'MARKER'                 'INTEND'
    x_5_1     OBJ       13.75
    x_5_1     positiveDeviation_1  0.15
    x_5_1     negativeDeviation_1  -0.15
    x_5_1     minOperation_5_1  1
    x_5_1     maxOperation_5_1  1
    MARKER    'MARKER'                 'INTORG'
    y_5_1_IDLE  initialState_5_1  1
    y_5_1_IDLE  stateExclusivity_5_1  1
    y_5_1_IDLE  stateTransitionStarting_5_2  -1
    y_5_1_IDLE  stateTransitionIdle_5_2  -1
    y_5_1_STARTING  OBJ       1.25
    y_5_1_STARTING  stateExclusivity_5_1  1
    y_5_1_STARTING  stateTransitionStarting_5_2  -1
    y_5_1_STARTING  stateTransitionProduction_5_2  -1
    y_5_1_PRODUCTION  minOperation_5_1  -0.1
    y_5_1_PRODUCTION  maxOperation_5_1  -1
    y_5_1_PRODUCTION  stateExclusivity_5_1  1
    y_5_1_PRODUCTION  stateTransitionProduction_5_2  -1
    y_5_1_PRODUCTION  stateTransitionStandby_5_2  -1
    y_5_1_PRODUCTION  stateTransitionIdle_5_2  -1
    y_5_1_STANDBY  OBJ       0.05
    y_5_1_STANDBY  stateExclusivity_5_1  1
    y_5_1_STANDBY  stateTransitionProduction_5_2  -1
    y_5_1_STANDBY  stateTransitionStandby_5_2  -1
    y_5_1_STANDBY  stateTransitionIdle_5_2  -1
    MARKER    'MARKER'                 'INTEND'
    x_5_2     OBJ       21.75
    x_5_2     positiveDeviation_2  0.15
    x_5_2     negativeDeviation_2  -0.15
    x_5_2     minOperation_5_2  1
    x_5_2     maxOperation_5_2  1
    MARKER    'MARKER'                 'INTORG'
    y_5_2_IDLE  stateExclusivity_5_2  1
    y_5_2_IDLE  stateTransitionIdle_5_2  1
    y_5_2_IDLE  stateTransitionStarting_5_3  -1
    y_5_2_IDLE  stateTransitionIdle_5_3  -1
    y_5_2_STARTING  OBJ       1.25
    y_5_2_STARTING  stateExclusivity_5_2  1
    y_5_2_STARTING  stateTransitionStarting_5_2  1
    y_5_2_STARTING  stateTransitionStarting_5_3  -1
    y_5_2_STARTING  stateTransitionProduction_5_3  -1
    y_5_2_PRODUCTION  minOperation_5_2  -0.1
    y_5_2_PRODUCTION  maxOperation_5_2  -1
    y_5_2_PRODUCTION  stateExclusivity_5_2  1
    y_5_2_PRODUCTION  stateTransitionProduction_5_2  1
    y_5_2_PRODUCTION  stateTransitionProduction_5_3  -1
    y_5_2_PRODUCTION  stateTransitionStandby_5_3  -1
    y_5_2_PRODUCTION  stateTransitionIdle_5_3  -1
    y_5_2_STANDBY  OBJ       0.05
    y_5_2_STANDBY  stateExclusivity_5_2  1
    y_5_2_STANDBY  stateTransitionStandby_5_2  1
    y_5_2_STANDBY  stateTransitionProduction_5_3  -1
    y_5_2_STANDBY  stateTransitionStandby_5_3  -1
    y_5_2_STANDBY  stateTransitionIdle_5_3  -1
    MARKER    'MARKER'                 'INTEND'
    x_5_3     OBJ       13.5
    x_5_3     positiveDeviation_3  0.15
    x_5_3     negativeDeviation_3  -0.15
    x_5_3     minOperation_5_3  1
    x_5_3     maxOperation_5_3  1
    MARKER    'MARKER'                 'INTORG'
    y_5_3_IDLE  stateExclusivity_5_3  1
    y_5_3_IDLE  stateTransitionIdle_5_3  1
    y_5_3_IDLE  stateTransitionStarting_5_4  -1
    y_5_3_IDLE  stateTransitionIdle_5_4  -1
    y_5_3_STARTING  OBJ       1.25
    y_5_3_STARTING  stateExclusivity_5_3  1
    y_5_3_STARTING  stateTransitionStarting_5_3  1
    y_5_3_STARTING  stateTransitionStarting_5_4  -1
    y_5_3_STARTING  stateTransitionProduction_5_4  -1
    y_5_3_PRODUCTION  minOperation_5_3  -0.1
    y_5_3_PRODUCTION  maxOperation_5_3  -1
    y_5_3_PRODUCTION  stateExclusivity_5_3  1
    y_5_3_PRODUCTION  stateTransitionProduction_5_3  1
    y_5_3_PRODUCTION  stateTransitionProduction_5_4  -1
    y_5_3_PRODUCTION  stateTransitionStandby_5_4  -1
    y_5_3_PRODUCTION  stateTransitionIdle_5_4  -1
    y_5_3_STANDBY  OBJ       0.05
    y_5_3_STANDBY  stateExclusivity_5_3  1
    y_5_3_STANDBY  stateTransitionStandby_5_3  1
    y_5_3_STANDBY  stateTransitionProduction_5_4  -1
    y_5_3_STANDBY  stateTransitionStandby_5_4  -1
    y_5_3_STANDBY  stateTransitionIdle_5_4  -1
    MARKER    'MARKER'                 'INTEND'
    x_5_4     OBJ       14.5
    x_5_4     positiveDeviation_4  0.15
    x_5_4     negativeDeviation_4  -0.15
    x_5_4     minOperation_5_4  1
    x_5_4     maxOperation_5_4  1
    MARKER    'MARKER'                 'INTORG'
    y_5_4_IDLE  stateExclusivity_5_4  1
    y_5_4_IDLE  stateTransitionIdle_5_4  1
    y_5_4_IDLE  stateTransitionStarting_5_5  -1
    y_5_4_IDLE  stateTransitionIdle_5_5  -1
    y_5_4_STARTING  OBJ       1.25
    y_5_4_STARTING  stateExclusivity_5_4  1
    y_5_4_STARTING  stateTransitionStarting_5_4  1
    y_5_4_STARTING  stateTransitionStarting_5_5  -1
    y_5_4_STARTING  stateTransitionProduction_5_5  -1
    y_5_4_PRODUCTION  minOperation_5_4  -0.1
    y_5_4_PRODUCTION  maxOperation_5_4  -1
    y_5_4_PRODUCTION  stateExclusivity_5_4  1
    y_5_4_PRODUCTION  stateTransitionProduction_5_4  1
    y_5_4_PRODUCTION  stateTransitionProduction_5_5  -1
    y_5_4_PRODUCTION  stateTransitionStandby_5_5  -1
    y_5_4_PRODUCTION  stateTransitionIdle_5_5  -1
    y_5_4_STANDBY  OBJ       0.05
    y_5_4_STANDBY  stateExclusivity_5_4  1
    y_5_4_STANDBY  stateTransitionStandby_5_4  1
    y_5_4_STANDBY  stateTransitionProduction_5_5  -1
    y_5_4_STANDBY  stateTransitionStandby_5_5  -1
    y_5_4_STANDBY  stateTransitionIdle_5_5  -1
    MARKER    'MARKER'                 'INTEND'
    x_5_5     OBJ       19.75
    x_5_5     positiveDeviation_5  0.15
    x_5_5     negativeDeviation_5  -0.15
    x_5_5     minOperation_5_5  1
    x_5_5     maxOperation_5_5  1
    MARKER    'MARKER'                 'INTORG'
    y_5_5_IDLE  stateExclusivity_5_5  1
    y_5_5_IDLE  stateTransitionIdle_5_5  1
    y_5_5_STARTING  OBJ       1.25
    y_5_5_STARTING  stateExclusivity_5_5  1
    y_5_5_STARTING  stateTransitionStarting_5_5  1
    y_5_5_PRODUCTION  minOperation_5_5  -0.1
    y_5_5_PRODUCTION  maxOperation_5_5  -1
    y_5_5_PRODUCTION  stateExclusivity_5_5  1
    y_5_5_PRODUCTION  stateTransitionProduction_5_5  1
    y_5_5_STANDBY  OBJ       0.05
    y_5_5_STANDBY  stateExclusivity_5_5  1
    y_5_5_STANDBY  stateTransitionStandby_5_5  1
    MARKER    'MARKER'                 'INTEND'
    positiveDeviation_period_1  OBJ       300
    positiveDeviation_period_1  positiveDeviation_1  1
    negativeDeviation_period_1  OBJ       300
    negativeDeviation_period_1  negativeDeviation_1  1
    positiveDeviation_period_2  OBJ       300
    positiveDeviation_period_2  positiveDeviation_2  1
    negativeDeviation_period_2  OBJ       300
    negativeDeviation_period_2  negativeDeviation_2  1
    positiveDeviation_period_3  OBJ       300
    positiveDeviation_period_3  positiveDeviation_3  1
    negativeDeviation_period_3  OBJ       300
    negativeDeviation_period_3  negativeDeviation_3  1
    positiveDeviation_period_4  OBJ       300
    positiveDeviation_period_4  positiveDeviation_4  1
    negativeDeviation_period_4  OBJ       300
    negativeDeviation_period_4  negativeDeviation_4  1
    positiveDeviation_period_5  OBJ       300
    positiveDeviation_period_5  positiveDeviation_5  1
    negativeDeviation_period_5  OBJ       300
    negativeDeviation_period_5  negativeDeviation_5  1
RHS
    RHS1      positiveDeviation_4  0.5
    RHS1      negativeDeviation_4  -0.5
    RHS1      positiveDeviation_5  0.4
    RHS1      negativeDeviation_5  -0.4
    RHS1      initialState_1_1  1
    RHS1      initialState_2_1  1
    RHS1      initialState_3_1  1
    RHS1      initialState_4_1  1
    RHS1      initialState_5_1  1
    RHS1      stateExclusivity_1_1  1
    RHS1      stateExclusivity_1_2  1
    RHS1      stateExclusivity_1_3  1
    RHS1      stateExclusivity_1_4  1
    RHS1      stateExclusivity_1_5  1
    RHS1      stateExclusivity_2_1  1
    RHS1      stateExclusivity_2_2  1
    RHS1      stateExclusivity_2_3  1
    RHS1      stateExclusivity_2_4  1
    RHS1      stateExclusivity_2_5  1
    RHS1      stateExclusivity_3_1  1
    RHS1      stateExclusivity_3_2  1
    RHS1      stateExclusivity_3_3  1
    RHS1      stateExclusivity_3_4  1
    RHS1      stateExclusivity_3_5  1
    RHS1      stateExclusivity_4_1  1
    RHS1      stateExclusivity_4_2  1
    RHS1      stateExclusivity_4_3  1
    RHS1      stateExclusivity_4_4  1
    RHS1      stateExclusivity_4_5  1
    RHS1      stateExclusivity_5_1  1
    RHS1      stateExclusivity_5_2  1
    RHS1      stateExclusivity_5_3  1
    RHS1      stateExclusivity_5_4  1
    RHS1      stateExclusivity_5_5  1
BOUNDS
 UP BND1      x_1_1     1
 BV BND1      y_1_1_IDLE
 BV BND1      y_1_1_STARTING
 BV BND1      y_1_1_PRODUCTION
 BV BND1      y_1_1_STANDBY
 UP BND1      x_1_2     1
 BV BND1      y_1_2_IDLE
 BV BND1      y_1_2_STARTING
 BV BND1      y_1_2_PRODUCTION
 BV BND1      y_1_2_STANDBY
 UP BND1      x_1_3     1
 BV BND1      y_1_3_IDLE
 BV BND1      y_1_3_STARTING
 BV BND1      y_1_3_PRODUCTION
 BV BND1      y_1_3_STANDBY
 UP BND1      x_1_4     1
 BV BND1      y_1_4_IDLE
 BV BND1      y_1_4_STARTING
 BV BND1      y_1_4_PRODUCTION
 BV BND1      y_1_4_STANDBY
 UP BND1      x_1_5     1
 BV BND1      y_1_5_IDLE
 BV BND1      y_1_5_STARTING
 BV BND1      y_1_5_PRODUCTION
 BV BND1      y_1_5_STANDBY
 UP BND1      x_2_1     1
 BV BND1      y_2_1_IDLE
 BV BND1      y_2_1_STARTING
 BV BND1      y_2_1_PRODUCTION
 BV BND1      y_2_1_STANDBY
 UP BND1      x_2_2     1
 BV BND1      y_2_2_IDLE
 BV BND1      y_2_2_STARTING
 BV BND1      y_2_2_PRODUCTION
 BV BND1      y_2_2_STANDBY
 UP BND1      x_2_3     1
 BV BND1      y_2_3_IDLE
 BV BND1      y_2_3_STARTING
 BV BND1      y_2_3_PRODUCTION
 BV BND1      y_2_3_STANDBY
 UP BND1      x_2_4     1
 BV BND1      y_2_4_IDLE
 BV BND1      y_2_4_STARTING
 BV BND1      y_2_4_PRODUCTION
 BV BND1      y_2_4_STANDBY
 UP BND1      x_2_5     1
 BV BND1      y_2_5_IDLE
 BV BND1      y_2_5_STARTING
 BV BND1      y_2_5_PRODUCTION
 BV BND1      y_2_5_STANDBY
 UP BND1      x_3_1     1
 BV BND1      y_3_1_IDLE
 BV BND1      y_3_1_STARTING
 BV BND1      y_3_1_PRODUCTION
 BV BND1      y_3_1_STANDBY
 UP BND1      x_3_2     1
 BV BND1      y_3_2_IDLE
 BV BND1      y_3_2_STARTING
 BV BND1      y_3_2_PRODUCTION
 BV BND1      y_3_2_STANDBY
 UP BND1      x_3_3     1
 BV BND1      y_3_3_IDLE
 BV BND1      y_3_3_STARTING
 BV BND1      y_3_3_PRODUCTION
 BV BND1      y_3_3_STANDBY
 UP BND1      x_3_4     1
 BV BND1      y_3_4_IDLE
 BV BND1      y_3_4_STARTING
 BV BND1      y_3_4_PRODUCTION
 BV BND1      y_3_4_STANDBY
 UP BND1      x_3_5     1
 BV BND1      y_3_5_IDLE
 BV BND1      y_3_5_STARTING
 BV BND1      y_3_5_PRODUCTION
 BV BND1      y_3_5_STANDBY
 UP BND1      x_4_1     1
 BV BND1      y_4_1_IDLE
 BV BND1      y_4_1_STARTING
 BV BND1      y_4_1_PRODUCTION
 BV BND1      y_4_1_STANDBY
 UP BND1      x_4_2     1
 BV BND1      y_4_2_IDLE
 BV BND1      y_4_2_STARTING
 BV BND1      y_4_2_PRODUCTION
 BV BND1      y_4_2_STANDBY
 UP BND1      x_4_3     1
 BV BND1      y_4_3_IDLE
 BV BND1      y_4_3_STARTING
 BV BND1      y_4_3_PRODUCTION
 BV BND1      y_4_3_STANDBY
 UP BND1      x_4_4     1
 BV BND1      y_4_4_IDLE
 BV BND1      y_4_4_STARTING
 BV BND1      y_4_4_PRODUCTION
 BV BND1      y_4_4_STANDBY
 UP BND1      x_4_5     1
 BV BND1      y_4_5_IDLE
 BV BND1      y_4_5_STARTING
 BV BND1      y_4_5_PRODUCTION
 BV BND1      y_4_5_STANDBY
 UP BND1      x_5_1     1
 BV BND1      y_5_1_IDLE
 BV BND1      y_5_1_STARTING
 BV BND1      y_5_1_PRODUCTION
 BV BND1      y_5_1_STANDBY
 UP BND1      x_5_2     1
 BV BND1      y_5_2_IDLE
 BV BND1      y_5_2_STARTING
 BV BND1      y_5_2_PRODUCTION
 BV BND1      y_5_2_STANDBY
 UP BND1      x_5_3     1
 BV BND1      y_5_3_IDLE
 BV BND1      y_5_3_STARTING
 BV BND1      y_5_3_PRODUCTION
 BV BND1      y_5_3_STANDBY
 UP BND1      x_5_4     1
 BV BND1      y_5_4_IDLE
 BV BND1      y_5_4_STARTING
 BV BND1      y_5_4_PRODUCTION
 BV BND1      y_5_4_STANDBY
 UP BND1      x_5_5     1
 BV BND1      y_5_5_IDLE
 BV BND1      y_5_5_STARTING
 BV BND1      y_5_5_PRODUCTION
 BV BND1      y_5_5_STANDBY
ENDATA
